643
1681
1802
22086
1815
15473
779
633
9669
795
3311
340
5095
522
457
5000
0
1547
15318
2756
3559
924
1269
16272
439
273
3787
113
3041
1294
2808
9659
5610
701
1689
5452
36
231
2926
207
0
420
15350
5898
6952
558
1850
714
3421
1950
3393
1736
162
21
9153
931
21679
925
104
10058
331
9508
1988
9763
11221
555
82
55
529
274
888
435
1562
884
199
21438
415
28756
516
265
1435
308
5365
6074
1866
5863
1565
3285
940
371
9248
3537
9899
15418
503
1782
6296
422
3243
6306
